100 1399
635 635 1016 1270 340 762 136 612 408 408 1143 381 508 612 612 476 889 272 889 680 1143 635 272 635 68 544 544 1270 612 408 889 381 272 254 544 136 476 476 136 204 272 272 680 127 127 1270 680 254 476 476 272 127 508 127 889 544 612 612 612 127 762 612 1143 340 612 408 544 381 680 408 476 272 1270 1270 508 1143 1016 680 254 340 476 508 381 544 1016 680 136 612 680 544 254 127 612 508 254 612 1016 612 127 340 
575 575 920 1150 275 690 110 495 330 330 1035 345 460 495 495 385 805 220 805 550 1035 575 220 575 55 440 440 1150 495 330 805 345 220 230 440 110 385 385 110 165 220 220 550 115 115 1150 550 230 385 385 220 115 460 115 805 440 495 495 495 115 690 495 1035 275 495 330 440 345 550 330 385 220 1150 1150 460 1035 920 550 230 275 385 460 345 440 920 550 110 495 550 440 230 115 495 460 230 495 920 495 115 275 
